\ Model TDVRP2
\ LP format - for model browsing. Use MPS format to capture full model detail.
Minimize
  332.1700099722822 xt[4,0] + 1468.182440647303 xt[4,9]
   + 121.4421579395008 xt[5,1] + 1061.703212884845 xt[8,0]
   + 1456.774442132331 xt[5,10] + 2464.991265866885 xt[8,9]
   + 2239.491293631201 xt[10,6] + 2464.991265866885 xt[9,8]
   + 362.8844828936554 xt[0,5] + 416.7737096135044 xt[6,2]
   + 649.870830492491 xt[7,1] + 2139.769738605067 xt[7,10]
   + 395.6722837462681 xt[4,2] + 419.8740476916923 xt[3,6]
   + 518.510603001517 xt[5,3] + 694.7776650483204 xt[8,2]
   + 1448.429779191955 xt[9,1] + 159.7763744268591 xt[9,10]
   + 701.0625713336876 xt[0,7] + 395.6722837462681 xt[2,4]
   + 1063.606697633096 xt[1,8] + 743.3971919505587 xt[6,4]
   + 342.6203721686693 xt[7,3] + 692.9840708847491 xt[3,8]
   + 1016.689318634248 xt[8,4] + 1854.82246484671 xt[9,3]
   + 1592.989927102495 xt[0,9] + 1570.833166992915 xt[1,10]
   + 728.6755571583351 xt[7,5] + 406.8652089451619 xt[3,1]
   + 1975.26952660262 xt[3,10] + 728.6755571583351 xt[5,7]
   + 1337.671663535198 xt[9,5] + 368.8231500326443 xt[0,2]
   + 406.8652089451619 xt[1,3] + 362.8844828936554 xt[5,0]
   + 1337.671663535198 xt[5,9] + 2036.131676642028 xt[9,7]
   + 2567.537257105518 xt[10,8] + 121.4421579395008 xt[1,5]
   + 711.7347187154699 xt[6,1] + 701.0625713336876 xt[7,0]
   + 2036.131676642028 xt[7,9] + 518.510603001517 xt[3,5]
   + 518.903127495876 xt[5,2] + 1592.989927102495 xt[9,0]
   + 1570.833166992915 xt[10,1] + 649.870830492491 xt[1,7]
   + 416.7737096135044 xt[2,6] + 345.6799871629796 xt[7,2]
   + 342.6203721686693 xt[3,7] + 135.0389217966547 xt[5,4]
   + 743.3971919505587 xt[4,6] + 1854.98970807119 xt[9,2]
   + 821.1563238050358 xt[8,6] + 1975.26952660262 xt[10,3]
   + 258.3759160602867 xt[1,0] + 1448.429779191955 xt[1,9]
   + 694.7776650483204 xt[2,8] + 594.251369371579 xt[7,4]
   + 821.1563238050358 xt[6,8] + 371.0007429237864 xt[3,0]
   + 1854.82246484671 xt[3,9] + 832.8151022886207 xt[5,6]
   + 1016.689318634248 xt[4,8] + 1456.774442132331 xt[10,5]
   + 406.8939385146866 xt[1,2] + 332.1700099722822 xt[0,4]
   + 406.8939385146866 xt[2,1] + 1975.629915830633 xt[2,10]
   + 2239.491293631201 xt[6,10] + 3.535427838327538 xt[3,2]
   + 90.43828683140279 xt[4,1] + 1584.359657164373 xt[4,10]
   + 1063.606697633096 xt[8,1] + 2567.537257105518 xt[8,10]
   + 2139.769738605067 xt[10,7] + 90.43828683140279 xt[1,4]
   + 511.7023357627066 xt[0,6] + 3.535427838327538 xt[2,3]
   + 419.8740476916923 xt[6,3] + 394.8585683823812 xt[3,4]
   + 394.8585683823812 xt[4,3] + 692.9840708847491 xt[8,3]
   + 1727.903340967003 xt[10,0] + 159.7763744268591 xt[10,9]
   + 711.7347187154699 xt[1,6] + 1061.703212884845 xt[0,8]
   + 518.903127495876 xt[2,5] + 832.8151022886207 xt[6,5]
   + 135.0389217966547 xt[4,5] + 1151.722449127824 xt[8,5]
   + 1975.629915830633 xt[10,2] + 1468.182440647303 xt[9,4]
   + 258.3759160602867 xt[0,1] + 1727.903340967003 xt[0,10]
   + 345.6799871629796 xt[2,7] + 665.2911580653911 xt[6,7]
   + 665.2911580653911 xt[7,6] + 594.251369371579 xt[4,7]
   + 1151.722449127824 xt[5,8] + 428.9557443664662 xt[8,7]
   + 1584.359657164373 xt[10,4] + 2103.583646571977 xt[9,6]
   + 371.0007429237864 xt[0,3] + 368.8231500326443 xt[2,0]
   + 1854.98970807119 xt[2,9] + 511.7023357627066 xt[6,0]
   + 2103.583646571977 xt[6,9] + 428.9557443664662 xt[7,8] + 139 xd[4,0]
   + 612 xd[4,9] + 53 xd[5,1] + 401 xd[8,0] + 618 xd[5,10] + 1010 xd[8,9]
   + 971 xd[10,6] + 1010 xd[9,8] + 159 xd[0,5] + 180 xd[6,2] + 249 xd[7,1]
   + 886 xd[7,10] + 171 xd[4,2] + 182 xd[3,6] + 220 xd[5,3] + 264 xd[8,2]
   + 610 xd[9,1] + 70 xd[9,10] + 258 xd[0,7] + 171 xd[2,4] + 418 xd[1,8]
   + 330 xd[6,4] + 126 xd[7,3] + 263 xd[3,8] + 405 xd[8,4] + 780 xd[9,3]
   + 686 xd[0,9] + 669 xd[1,10] + 286 xd[7,5] + 170 xd[3,1] + 838 xd[3,10]
   + 286 xd[5,7] + 560 xd[9,5] + 137 xd[0,2] + 170 xd[1,3] + 159 xd[5,0]
   + 560 xd[5,9] + 834 xd[9,7] + 1061 xd[10,8] + 53 xd[1,5] + 315 xd[6,1]
   + 258 xd[7,0] + 834 xd[7,9] + 220 xd[3,5] + 220 xd[5,2] + 686 xd[9,0]
   + 669 xd[10,1] + 249 xd[1,7] + 180 xd[2,6] + 128 xd[7,2] + 126 xd[3,7]
   + 53 xd[5,4] + 330 xd[4,6] + 781 xd[9,2] + 304 xd[8,6] + 838 xd[10,3]
   + 111 xd[1,0] + 610 xd[1,9] + 264 xd[2,8] + 232 xd[7,4] + 304 xd[6,8]
   + 138 xd[3,0] + 780 xd[3,9] + 369 xd[5,6] + 405 xd[4,8] + 618 xd[10,5]
   + 170 xd[1,2] + 139 xd[0,4] + 170 xd[2,1] + 839 xd[2,10] + 971 xd[6,10]
   + xd[3,2] + 34 xd[4,1] + 669 xd[4,10] + 418 xd[8,1] + 1061 xd[8,10]
   + 886 xd[10,7] + 34 xd[1,4] + 222 xd[0,6] + xd[2,3] + 182 xd[6,3]
   + 170 xd[3,4] + 170 xd[4,3] + 263 xd[8,3] + 749 xd[10,0] + 70 xd[10,9]
   + 315 xd[1,6] + 401 xd[0,8] + 220 xd[2,5] + 369 xd[6,5] + 53 xd[4,5]
   + 459 xd[8,5] + 839 xd[10,2] + 612 xd[9,4] + 111 xd[0,1] + 749 xd[0,10]
   + 128 xd[2,7] + 267 xd[6,7] + 267 xd[7,6] + 232 xd[4,7] + 459 xd[5,8]
   + 175 xd[8,7] + 669 xd[10,4] + 908 xd[9,6] + 138 xd[0,3] + 137 xd[2,0]
   + 781 xd[2,9] + 222 xd[6,0] + 908 xd[6,9] + 175 xd[7,8]
Subject To
 C11: xt[0,5] + xt[0,7] + xt[0,9] + xt[0,2] + xt[0,4] + xt[0,6] + xt[0,8]
   + xt[0,1] + xt[0,10] + xt[0,3] <= 8
 C12: xd[0,5] + xd[0,7] + xd[0,9] + xd[0,2] + xd[0,4] + xd[0,6] + xd[0,8]
   + xd[0,1] + xd[0,10] + xd[0,3] <= 6
 C21: xt[4,0] + xt[8,0] + xt[5,0] + xt[7,0] + xt[9,0] + xt[1,0] + xt[3,0]
   + xt[10,0] + xt[2,0] + xt[6,0] <= 8
 C22: xd[4,0] + xd[8,0] + xd[5,0] + xd[7,0] + xd[9,0] + xd[1,0] + xd[3,0]
   + xd[10,0] + xd[2,0] + xd[6,0] <= 6
 C3: xt[5,1] + xt[7,1] + xt[9,1] + xt[3,1] + xt[6,1] + xt[10,1] + xt[2,1]
   + xt[4,1] + xt[8,1] + xt[0,1] + xd[5,1] + xd[7,1] + xd[9,1] + xd[3,1]
   + xd[6,1] + xd[10,1] + xd[2,1] + xd[4,1] + xd[8,1] + xd[0,1] = 1
 C3: xt[6,2] + xt[4,2] + xt[8,2] + xt[0,2] + xt[5,2] + xt[7,2] + xt[9,2]
   + xt[1,2] + xt[3,2] + xt[10,2] + xd[6,2] + xd[4,2] + xd[8,2] + xd[0,2]
   + xd[5,2] + xd[7,2] + xd[9,2] + xd[1,2] + xd[3,2] + xd[10,2] = 1
 C3: xt[5,3] + xt[7,3] + xt[9,3] + xt[1,3] + xt[10,3] + xt[2,3] + xt[6,3]
   + xt[4,3] + xt[8,3] + xt[0,3] + xd[5,3] + xd[7,3] + xd[9,3] + xd[1,3]
   + xd[10,3] + xd[2,3] + xd[6,3] + xd[4,3] + xd[8,3] + xd[0,3] = 1
 C3: xt[2,4] + xt[6,4] + xt[8,4] + xt[5,4] + xt[7,4] + xt[0,4] + xt[1,4]
   + xt[3,4] + xt[9,4] + xt[10,4] + xd[2,4] + xd[6,4] + xd[8,4] + xd[5,4]
   + xd[7,4] + xd[0,4] + xd[1,4] + xd[3,4] + xd[9,4] + xd[10,4] = 1
 C3: xt[0,5] + xt[7,5] + xt[9,5] + xt[1,5] + xt[3,5] + xt[10,5] + xt[2,5]
   + xt[6,5] + xt[4,5] + xt[8,5] + xd[0,5] + xd[7,5] + xd[9,5] + xd[1,5]
   + xd[3,5] + xd[10,5] + xd[2,5] + xd[6,5] + xd[4,5] + xd[8,5] = 1
 C3: xt[10,6] + xt[3,6] + xt[2,6] + xt[4,6] + xt[8,6] + xt[5,6] + xt[0,6]
   + xt[1,6] + xt[7,6] + xt[9,6] + xd[10,6] + xd[3,6] + xd[2,6] + xd[4,6]
   + xd[8,6] + xd[5,6] + xd[0,6] + xd[1,6] + xd[7,6] + xd[9,6] = 1
 C3: xt[0,7] + xt[5,7] + xt[9,7] + xt[1,7] + xt[3,7] + xt[10,7] + xt[2,7]
   + xt[6,7] + xt[4,7] + xt[8,7] + xd[0,7] + xd[5,7] + xd[9,7] + xd[1,7]
   + xd[3,7] + xd[10,7] + xd[2,7] + xd[6,7] + xd[4,7] + xd[8,7] = 1
 C3: xt[9,8] + xt[1,8] + xt[3,8] + xt[10,8] + xt[2,8] + xt[6,8] + xt[4,8]
   + xt[0,8] + xt[5,8] + xt[7,8] + xd[9,8] + xd[1,8] + xd[3,8] + xd[10,8]
   + xd[2,8] + xd[6,8] + xd[4,8] + xd[0,8] + xd[5,8] + xd[7,8] = 1
 C3: xt[4,9] + xt[8,9] + xt[0,9] + xt[5,9] + xt[7,9] + xt[1,9] + xt[3,9]
   + xt[10,9] + xt[2,9] + xt[6,9] + xd[4,9] + xd[8,9] + xd[0,9] + xd[5,9]
   + xd[7,9] + xd[1,9] + xd[3,9] + xd[10,9] + xd[2,9] + xd[6,9] = 1
 C3: xt[5,10] + xt[7,10] + xt[9,10] + xt[1,10] + xt[3,10] + xt[2,10]
   + xt[6,10] + xt[4,10] + xt[8,10] + xt[0,10] + xd[5,10] + xd[7,10]
   + xd[9,10] + xd[1,10] + xd[3,10] + xd[2,10] + xd[6,10] + xd[4,10]
   + xd[8,10] + xd[0,10] = 1
 C4: xt[5,1] + xt[7,1] + xt[9,1] - xt[1,8] - xt[1,10] + xt[3,1] - xt[1,3]
   - xt[1,5] + xt[6,1] + xt[10,1] - xt[1,7] - xt[1,0] - xt[1,9] - xt[1,2]
   + xt[2,1] + xt[4,1] + xt[8,1] - xt[1,4] - xt[1,6] + xt[0,1] = 0
 C4: xt[6,2] + xt[4,2] + xt[8,2] - xt[2,4] + xt[0,2] + xt[5,2] - xt[2,6]
   + xt[7,2] + xt[9,2] - xt[2,8] + xt[1,2] - xt[2,1] - xt[2,10] + xt[3,2]
   - xt[2,3] - xt[2,5] + xt[10,2] - xt[2,7] - xt[2,0] - xt[2,9] = 0
 C4: - xt[3,6] + xt[5,3] + xt[7,3] - xt[3,8] + xt[9,3] - xt[3,1] - xt[3,10]
   + xt[1,3] - xt[3,5] - xt[3,7] + xt[10,3] - xt[3,0] - xt[3,9] - xt[3,2]
   + xt[2,3] + xt[6,3] - xt[3,4] + xt[4,3] + xt[8,3] + xt[0,3] = 0
 C4: - xt[4,0] - xt[4,9] - xt[4,2] + xt[2,4] + xt[6,4] + xt[8,4] + xt[5,4]
   - xt[4,6] + xt[7,4] - xt[4,8] + xt[0,4] - xt[4,1] - xt[4,10] + xt[1,4]
   + xt[3,4] - xt[4,3] - xt[4,5] + xt[9,4] - xt[4,7] + xt[10,4] = 0
 C4: - xt[5,1] - xt[5,10] + xt[0,5] - xt[5,3] + xt[7,5] - xt[5,7] + xt[9,5]
   - xt[5,0] - xt[5,9] + xt[1,5] + xt[3,5] - xt[5,2] - xt[5,4] - xt[5,6]
   + xt[10,5] + xt[2,5] + xt[6,5] + xt[4,5] + xt[8,5] - xt[5,8] = 0
 C4: xt[10,6] - xt[6,2] + xt[3,6] - xt[6,4] - xt[6,1] + xt[2,6] + xt[4,6]
   + xt[8,6] - xt[6,8] + xt[5,6] - xt[6,10] + xt[0,6] - xt[6,3] + xt[1,6]
   - xt[6,5] - xt[6,7] + xt[7,6] + xt[9,6] - xt[6,0] - xt[6,9] = 0
 C4: - xt[7,1] - xt[7,10] + xt[0,7] - xt[7,3] - xt[7,5] + xt[5,7] + xt[9,7]
   - xt[7,0] - xt[7,9] + xt[1,7] - xt[7,2] + xt[3,7] - xt[7,4] + xt[10,7]
   + xt[2,7] + xt[6,7] - xt[7,6] + xt[4,7] + xt[8,7] - xt[7,8] = 0
 C4: - xt[8,0] - xt[8,9] + xt[9,8] - xt[8,2] + xt[1,8] + xt[3,8] - xt[8,4]
   + xt[10,8] - xt[8,6] + xt[2,8] + xt[6,8] + xt[4,8] - xt[8,1] - xt[8,10]
   - xt[8,3] + xt[0,8] - xt[8,5] + xt[5,8] - xt[8,7] + xt[7,8] = 0
 C4: xt[4,9] + xt[8,9] - xt[9,8] - xt[9,1] - xt[9,10] - xt[9,3] + xt[0,9]
   - xt[9,5] + xt[5,9] - xt[9,7] + xt[7,9] - xt[9,0] - xt[9,2] + xt[1,9]
   + xt[3,9] + xt[10,9] - xt[9,4] - xt[9,6] + xt[2,9] + xt[6,9] = 0
 C4: xt[5,10] - xt[10,6] + xt[7,10] + xt[9,10] + xt[1,10] + xt[3,10]
   - xt[10,8] - xt[10,1] - xt[10,3] - xt[10,5] + xt[2,10] + xt[6,10]
   + xt[4,10] + xt[8,10] - xt[10,7] - xt[10,0] - xt[10,9] - xt[10,2]
   + xt[0,10] - xt[10,4] = 0
 C5: xd[5,1] + xd[7,1] + xd[9,1] - xd[1,8] - xd[1,10] + xd[3,1] - xd[1,3]
   - xd[1,5] + xd[6,1] + xd[10,1] - xd[1,7] - xd[1,0] - xd[1,9] - xd[1,2]
   + xd[2,1] + xd[4,1] + xd[8,1] - xd[1,4] - xd[1,6] + xd[0,1] = 0
 C5: xd[6,2] + xd[4,2] + xd[8,2] - xd[2,4] + xd[0,2] + xd[5,2] - xd[2,6]
   + xd[7,2] + xd[9,2] - xd[2,8] + xd[1,2] - xd[2,1] - xd[2,10] + xd[3,2]
   - xd[2,3] - xd[2,5] + xd[10,2] - xd[2,7] - xd[2,0] - xd[2,9] = 0
 C5: - xd[3,6] + xd[5,3] + xd[7,3] - xd[3,8] + xd[9,3] - xd[3,1] - xd[3,10]
   + xd[1,3] - xd[3,5] - xd[3,7] + xd[10,3] - xd[3,0] - xd[3,9] - xd[3,2]
   + xd[2,3] + xd[6,3] - xd[3,4] + xd[4,3] + xd[8,3] + xd[0,3] = 0
 C5: - xd[4,0] - xd[4,9] - xd[4,2] + xd[2,4] + xd[6,4] + xd[8,4] + xd[5,4]
   - xd[4,6] + xd[7,4] - xd[4,8] + xd[0,4] - xd[4,1] - xd[4,10] + xd[1,4]
   + xd[3,4] - xd[4,3] - xd[4,5] + xd[9,4] - xd[4,7] + xd[10,4] = 0
 C5: - xd[5,1] - xd[5,10] + xd[0,5] - xd[5,3] + xd[7,5] - xd[5,7] + xd[9,5]
   - xd[5,0] - xd[5,9] + xd[1,5] + xd[3,5] - xd[5,2] - xd[5,4] - xd[5,6]
   + xd[10,5] + xd[2,5] + xd[6,5] + xd[4,5] + xd[8,5] - xd[5,8] = 0
 C5: xd[10,6] - xd[6,2] + xd[3,6] - xd[6,4] - xd[6,1] + xd[2,6] + xd[4,6]
   + xd[8,6] - xd[6,8] + xd[5,6] - xd[6,10] + xd[0,6] - xd[6,3] + xd[1,6]
   - xd[6,5] - xd[6,7] + xd[7,6] + xd[9,6] - xd[6,0] - xd[6,9] = 0
 C5: - xd[7,1] - xd[7,10] + xd[0,7] - xd[7,3] - xd[7,5] + xd[5,7] + xd[9,7]
   - xd[7,0] - xd[7,9] + xd[1,7] - xd[7,2] + xd[3,7] - xd[7,4] + xd[10,7]
   + xd[2,7] + xd[6,7] - xd[7,6] + xd[4,7] + xd[8,7] - xd[7,8] = 0
 C5: - xd[8,0] - xd[8,9] + xd[9,8] - xd[8,2] + xd[1,8] + xd[3,8] - xd[8,4]
   + xd[10,8] - xd[8,6] + xd[2,8] + xd[6,8] + xd[4,8] - xd[8,1] - xd[8,10]
   - xd[8,3] + xd[0,8] - xd[8,5] + xd[5,8] - xd[8,7] + xd[7,8] = 0
 C5: xd[4,9] + xd[8,9] - xd[9,8] - xd[9,1] - xd[9,10] - xd[9,3] + xd[0,9]
   - xd[9,5] + xd[5,9] - xd[9,7] + xd[7,9] - xd[9,0] - xd[9,2] + xd[1,9]
   + xd[3,9] + xd[10,9] - xd[9,4] - xd[9,6] + xd[2,9] + xd[6,9] = 0
 C5: xd[5,10] - xd[10,6] + xd[7,10] + xd[9,10] + xd[1,10] + xd[3,10]
   - xd[10,8] - xd[10,1] - xd[10,3] - xd[10,5] + xd[2,10] + xd[6,10]
   + xd[4,10] + xd[8,10] - xd[10,7] - xd[10,0] - xd[10,9] - xd[10,2]
   + xd[0,10] - xd[10,4] = 0
 C6: 139 xd[4,0] + 612 xd[4,9] + 53 xd[5,1] + 401 xd[8,0] + 618 xd[5,10]
   + 1010 xd[8,9] + 971 xd[10,6] + 1010 xd[9,8] + 159 xd[0,5] + 180 xd[6,2]
   + 249 xd[7,1] + 886 xd[7,10] + 171 xd[4,2] + 182 xd[3,6] + 220 xd[5,3]
   + 264 xd[8,2] + 610 xd[9,1] + 70 xd[9,10] + 258 xd[0,7] + 171 xd[2,4]
   + 418 xd[1,8] + 330 xd[6,4] + 126 xd[7,3] + 263 xd[3,8] + 405 xd[8,4]
   + 780 xd[9,3] + 686 xd[0,9] + 669 xd[1,10] + 286 xd[7,5] + 170 xd[3,1]
   + 838 xd[3,10] + 286 xd[5,7] + 560 xd[9,5] + 137 xd[0,2] + 170 xd[1,3]
   + 159 xd[5,0] + 560 xd[5,9] + 834 xd[9,7] + 1061 xd[10,8] + 53 xd[1,5]
   + 315 xd[6,1] + 258 xd[7,0] + 834 xd[7,9] + 220 xd[3,5] + 220 xd[5,2]
   + 686 xd[9,0] + 669 xd[10,1] + 249 xd[1,7] + 180 xd[2,6] + 128 xd[7,2]
   + 126 xd[3,7] + 53 xd[5,4] + 330 xd[4,6] + 781 xd[9,2] + 304 xd[8,6]
   + 838 xd[10,3] + 111 xd[1,0] + 610 xd[1,9] + 264 xd[2,8] + 232 xd[7,4]
   + 304 xd[6,8] + 138 xd[3,0] + 780 xd[3,9] + 369 xd[5,6] + 405 xd[4,8]
   + 618 xd[10,5] + 170 xd[1,2] + 139 xd[0,4] + 170 xd[2,1] + 839 xd[2,10]
   + 971 xd[6,10] + xd[3,2] + 34 xd[4,1] + 669 xd[4,10] + 418 xd[8,1]
   + 1061 xd[8,10] + 886 xd[10,7] + 34 xd[1,4] + 222 xd[0,6] + xd[2,3]
   + 182 xd[6,3] + 170 xd[3,4] + 170 xd[4,3] + 263 xd[8,3] + 749 xd[10,0]
   + 70 xd[10,9] + 315 xd[1,6] + 401 xd[0,8] + 220 xd[2,5] + 369 xd[6,5]
   + 53 xd[4,5] + 459 xd[8,5] + 839 xd[10,2] + 612 xd[9,4] + 111 xd[0,1]
   + 749 xd[0,10] + 128 xd[2,7] + 267 xd[6,7] + 267 xd[7,6] + 232 xd[4,7]
   + 459 xd[5,8] + 175 xd[8,7] + 669 xd[10,4] + 908 xd[9,6] + 138 xd[0,3]
   + 137 xd[2,0] + 781 xd[2,9] + 222 xd[6,0] + 908 xd[6,9] + 175 xd[7,8]
   <= 1800
 C7: 100010 xt[1,2] + 100010 xd[1,2] - y[1] + y[2] <= 100000
 C7: 100035 xt[1,3] + 100035 xd[1,3] - y[1] + y[3] <= 100000
 C7: 100003 xt[1,4] + 100003 xd[1,4] - y[1] + y[4] <= 100000
 C7: 100008 xt[1,5] + 100008 xd[1,5] - y[1] + y[5] <= 100000
 C7: 100024 xt[1,6] + 100024 xd[1,6] - y[1] + y[6] <= 100000
 C7: 100016 xt[1,7] + 100016 xd[1,7] - y[1] + y[7] <= 100000
 C7: 100008 xt[1,8] + 100008 xd[1,8] - y[1] + y[8] <= 100000
 C7: 100001 xt[1,9] + 100001 xd[1,9] - y[1] + y[9] <= 100000
 C7: 100002 xt[1,10] + 100002 xd[1,10] - y[1] + y[10] <= 100000
 C7: 100024 xt[2,1] + 100024 xd[2,1] + y[1] - y[2] <= 100000
 C7: 100035 xt[2,3] + 100035 xd[2,3] - y[2] + y[3] <= 100000
 C7: 100003 xt[2,4] + 100003 xd[2,4] - y[2] + y[4] <= 100000
 C7: 100008 xt[2,5] + 100008 xd[2,5] - y[2] + y[5] <= 100000
 C7: 100024 xt[2,6] + 100024 xd[2,6] - y[2] + y[6] <= 100000
 C7: 100016 xt[2,7] + 100016 xd[2,7] - y[2] + y[7] <= 100000
 C7: 100008 xt[2,8] + 100008 xd[2,8] - y[2] + y[8] <= 100000
 C7: 100001 xt[2,9] + 100001 xd[2,9] - y[2] + y[9] <= 100000
 C7: 100002 xt[2,10] + 100002 xd[2,10] - y[2] + y[10] <= 100000
 C7: 100024 xt[3,1] + 100024 xd[3,1] + y[1] - y[3] <= 100000
 C7: 100010 xt[3,2] + 100010 xd[3,2] + y[2] - y[3] <= 100000
 C7: 100003 xt[3,4] + 100003 xd[3,4] - y[3] + y[4] <= 100000
 C7: 100008 xt[3,5] + 100008 xd[3,5] - y[3] + y[5] <= 100000
 C7: 100024 xt[3,6] + 100024 xd[3,6] - y[3] + y[6] <= 100000
 C7: 100016 xt[3,7] + 100016 xd[3,7] - y[3] + y[7] <= 100000
 C7: 100008 xt[3,8] + 100008 xd[3,8] - y[3] + y[8] <= 100000
 C7: 100001 xt[3,9] + 100001 xd[3,9] - y[3] + y[9] <= 100000
 C7: 100002 xt[3,10] + 100002 xd[3,10] - y[3] + y[10] <= 100000
 C7: 100024 xt[4,1] + 100024 xd[4,1] + y[1] - y[4] <= 100000
 C7: 100010 xt[4,2] + 100010 xd[4,2] + y[2] - y[4] <= 100000
 C7: 100035 xt[4,3] + 100035 xd[4,3] + y[3] - y[4] <= 100000
 C7: 100008 xt[4,5] + 100008 xd[4,5] - y[4] + y[5] <= 100000
 C7: 100024 xt[4,6] + 100024 xd[4,6] - y[4] + y[6] <= 100000
 C7: 100016 xt[4,7] + 100016 xd[4,7] - y[4] + y[7] <= 100000
 C7: 100008 xt[4,8] + 100008 xd[4,8] - y[4] + y[8] <= 100000
 C7: 100001 xt[4,9] + 100001 xd[4,9] - y[4] + y[9] <= 100000
 C7: 100002 xt[4,10] + 100002 xd[4,10] - y[4] + y[10] <= 100000
 C7: 100024 xt[5,1] + 100024 xd[5,1] + y[1] - y[5] <= 100000
 C7: 100010 xt[5,2] + 100010 xd[5,2] + y[2] - y[5] <= 100000
 C7: 100035 xt[5,3] + 100035 xd[5,3] + y[3] - y[5] <= 100000
 C7: 100003 xt[5,4] + 100003 xd[5,4] + y[4] - y[5] <= 100000
 C7: 100024 xt[5,6] + 100024 xd[5,6] - y[5] + y[6] <= 100000
 C7: 100016 xt[5,7] + 100016 xd[5,7] - y[5] + y[7] <= 100000
 C7: 100008 xt[5,8] + 100008 xd[5,8] - y[5] + y[8] <= 100000
 C7: 100001 xt[5,9] + 100001 xd[5,9] - y[5] + y[9] <= 100000
 C7: 100002 xt[5,10] + 100002 xd[5,10] - y[5] + y[10] <= 100000
 C7: 100024 xt[6,1] + 100024 xd[6,1] + y[1] - y[6] <= 100000
 C7: 100010 xt[6,2] + 100010 xd[6,2] + y[2] - y[6] <= 100000
 C7: 100035 xt[6,3] + 100035 xd[6,3] + y[3] - y[6] <= 100000
 C7: 100003 xt[6,4] + 100003 xd[6,4] + y[4] - y[6] <= 100000
 C7: 100008 xt[6,5] + 100008 xd[6,5] + y[5] - y[6] <= 100000
 C7: 100016 xt[6,7] + 100016 xd[6,7] - y[6] + y[7] <= 100000
 C7: 100008 xt[6,8] + 100008 xd[6,8] - y[6] + y[8] <= 100000
 C7: 100001 xt[6,9] + 100001 xd[6,9] - y[6] + y[9] <= 100000
 C7: 100002 xt[6,10] + 100002 xd[6,10] - y[6] + y[10] <= 100000
 C7: 100024 xt[7,1] + 100024 xd[7,1] + y[1] - y[7] <= 100000
 C7: 100010 xt[7,2] + 100010 xd[7,2] + y[2] - y[7] <= 100000
 C7: 100035 xt[7,3] + 100035 xd[7,3] + y[3] - y[7] <= 100000
 C7: 100003 xt[7,4] + 100003 xd[7,4] + y[4] - y[7] <= 100000
 C7: 100008 xt[7,5] + 100008 xd[7,5] + y[5] - y[7] <= 100000
 C7: 100024 xt[7,6] + 100024 xd[7,6] + y[6] - y[7] <= 100000
 C7: 100008 xt[7,8] + 100008 xd[7,8] - y[7] + y[8] <= 100000
 C7: 100001 xt[7,9] + 100001 xd[7,9] - y[7] + y[9] <= 100000
 C7: 100002 xt[7,10] + 100002 xd[7,10] - y[7] + y[10] <= 100000
 C7: 100024 xt[8,1] + 100024 xd[8,1] + y[1] - y[8] <= 100000
 C7: 100010 xt[8,2] + 100010 xd[8,2] + y[2] - y[8] <= 100000
 C7: 100035 xt[8,3] + 100035 xd[8,3] + y[3] - y[8] <= 100000
 C7: 100003 xt[8,4] + 100003 xd[8,4] + y[4] - y[8] <= 100000
 C7: 100008 xt[8,5] + 100008 xd[8,5] + y[5] - y[8] <= 100000
 C7: 100024 xt[8,6] + 100024 xd[8,6] + y[6] - y[8] <= 100000
 C7: 100016 xt[8,7] + 100016 xd[8,7] + y[7] - y[8] <= 100000
 C7: 100001 xt[8,9] + 100001 xd[8,9] - y[8] + y[9] <= 100000
 C7: 100002 xt[8,10] + 100002 xd[8,10] - y[8] + y[10] <= 100000
 C7: 100024 xt[9,1] + 100024 xd[9,1] + y[1] - y[9] <= 100000
 C7: 100010 xt[9,2] + 100010 xd[9,2] + y[2] - y[9] <= 100000
 C7: 100035 xt[9,3] + 100035 xd[9,3] + y[3] - y[9] <= 100000
 C7: 100003 xt[9,4] + 100003 xd[9,4] + y[4] - y[9] <= 100000
 C7: 100008 xt[9,5] + 100008 xd[9,5] + y[5] - y[9] <= 100000
 C7: 100024 xt[9,6] + 100024 xd[9,6] + y[6] - y[9] <= 100000
 C7: 100016 xt[9,7] + 100016 xd[9,7] + y[7] - y[9] <= 100000
 C7: 100008 xt[9,8] + 100008 xd[9,8] + y[8] - y[9] <= 100000
 C7: 100002 xt[9,10] + 100002 xd[9,10] - y[9] + y[10] <= 100000
 C7: 100024 xt[10,1] + 100024 xd[10,1] + y[1] - y[10] <= 100000
 C7: 100010 xt[10,2] + 100010 xd[10,2] + y[2] - y[10] <= 100000
 C7: 100035 xt[10,3] + 100035 xd[10,3] + y[3] - y[10] <= 100000
 C7: 100003 xt[10,4] + 100003 xd[10,4] + y[4] - y[10] <= 100000
 C7: 100008 xt[10,5] + 100008 xd[10,5] + y[5] - y[10] <= 100000
 C7: 100024 xt[10,6] + 100024 xd[10,6] + y[6] - y[10] <= 100000
 C7: 100016 xt[10,7] + 100016 xd[10,7] + y[7] - y[10] <= 100000
 C7: 100008 xt[10,8] + 100008 xd[10,8] + y[8] - y[10] <= 100000
 C7: 100001 xt[10,9] + 100001 xd[10,9] + y[9] - y[10] <= 100000
 C9: - 16 xt[5,1] - 16 xt[7,1] - 16 xt[9,1] - 16 xt[3,1] - 16 xt[6,1]
   - 16 xt[10,1] - 16 xt[2,1] - 16 xt[4,1] - 16 xt[8,1] - 16 xt[0,1]
   + 14 xd[5,1] + 14 xd[7,1] + 14 xd[9,1] + 14 xd[3,1] + 14 xd[6,1]
   + 14 xd[10,1] + 14 xd[2,1] + 14 xd[4,1] + 14 xd[8,1] + 14 xd[0,1] + y[1]
   <= 0
 C9: - 30 xt[6,2] - 30 xt[4,2] - 30 xt[8,2] - 30 xt[0,2] - 30 xt[5,2]
   - 30 xt[7,2] - 30 xt[9,2] - 30 xt[1,2] - 30 xt[3,2] - 30 xt[10,2] + y[2]
   <= 0
 C9: - 5 xt[5,3] - 5 xt[7,3] - 5 xt[9,3] - 5 xt[1,3] - 5 xt[10,3]
   - 5 xt[2,3] - 5 xt[6,3] - 5 xt[4,3] - 5 xt[8,3] - 5 xt[0,3] + 25 xd[5,3]
   + 25 xd[7,3] + 25 xd[9,3] + 25 xd[1,3] + 25 xd[10,3] + 25 xd[2,3]
   + 25 xd[6,3] + 25 xd[4,3] + 25 xd[8,3] + 25 xd[0,3] + y[3] <= 0
 C9: - 37 xt[2,4] - 37 xt[6,4] - 37 xt[8,4] - 37 xt[5,4] - 37 xt[7,4]
   - 37 xt[0,4] - 37 xt[1,4] - 37 xt[3,4] - 37 xt[9,4] - 37 xt[10,4]
   - 7 xd[2,4] - 7 xd[6,4] - 7 xd[8,4] - 7 xd[5,4] - 7 xd[7,4] - 7 xd[0,4]
   - 7 xd[1,4] - 7 xd[3,4] - 7 xd[9,4] - 7 xd[10,4] + y[4] <= 0
 C9: - 32 xt[0,5] - 32 xt[7,5] - 32 xt[9,5] - 32 xt[1,5] - 32 xt[3,5]
   - 32 xt[10,5] - 32 xt[2,5] - 32 xt[6,5] - 32 xt[4,5] - 32 xt[8,5]
   - 2 xd[0,5] - 2 xd[7,5] - 2 xd[9,5] - 2 xd[1,5] - 2 xd[3,5] - 2 xd[10,5]
   - 2 xd[2,5] - 2 xd[6,5] - 2 xd[4,5] - 2 xd[8,5] + y[5] <= 0
 C9: - 16 xt[10,6] - 16 xt[3,6] - 16 xt[2,6] - 16 xt[4,6] - 16 xt[8,6]
   - 16 xt[5,6] - 16 xt[0,6] - 16 xt[1,6] - 16 xt[7,6] - 16 xt[9,6]
   + 14 xd[10,6] + 14 xd[3,6] + 14 xd[2,6] + 14 xd[4,6] + 14 xd[8,6]
   + 14 xd[5,6] + 14 xd[0,6] + 14 xd[1,6] + 14 xd[7,6] + 14 xd[9,6] + y[6]
   <= 0
 C9: - 24 xt[0,7] - 24 xt[5,7] - 24 xt[9,7] - 24 xt[1,7] - 24 xt[3,7]
   - 24 xt[10,7] - 24 xt[2,7] - 24 xt[6,7] - 24 xt[4,7] - 24 xt[8,7]
   + 6 xd[0,7] + 6 xd[5,7] + 6 xd[9,7] + 6 xd[1,7] + 6 xd[3,7] + 6 xd[10,7]
   + 6 xd[2,7] + 6 xd[6,7] + 6 xd[4,7] + 6 xd[8,7] + y[7] <= 0
 C9: - 32 xt[9,8] - 32 xt[1,8] - 32 xt[3,8] - 32 xt[10,8] - 32 xt[2,8]
   - 32 xt[6,8] - 32 xt[4,8] - 32 xt[0,8] - 32 xt[5,8] - 32 xt[7,8]
   - 2 xd[9,8] - 2 xd[1,8] - 2 xd[3,8] - 2 xd[10,8] - 2 xd[2,8] - 2 xd[6,8]
   - 2 xd[4,8] - 2 xd[0,8] - 2 xd[5,8] - 2 xd[7,8] + y[8] <= 0
 C9: - 39 xt[4,9] - 39 xt[8,9] - 39 xt[0,9] - 39 xt[5,9] - 39 xt[7,9]
   - 39 xt[1,9] - 39 xt[3,9] - 39 xt[10,9] - 39 xt[2,9] - 39 xt[6,9]
   - 9 xd[4,9] - 9 xd[8,9] - 9 xd[0,9] - 9 xd[5,9] - 9 xd[7,9] - 9 xd[1,9]
   - 9 xd[3,9] - 9 xd[10,9] - 9 xd[2,9] - 9 xd[6,9] + y[9] <= 0
 C9: - 38 xt[5,10] - 38 xt[7,10] - 38 xt[9,10] - 38 xt[1,10] - 38 xt[3,10]
   - 38 xt[2,10] - 38 xt[6,10] - 38 xt[4,10] - 38 xt[8,10] - 38 xt[0,10]
   - 8 xd[5,10] - 8 xd[7,10] - 8 xd[9,10] - 8 xd[1,10] - 8 xd[3,10]
   - 8 xd[2,10] - 8 xd[6,10] - 8 xd[4,10] - 8 xd[8,10] - 8 xd[0,10] + y[10]
   <= 0
 C12: - 990 w[1] >= -976
 C13: - 10 w[1] <= 14
 C14: xd[5,1] + xd[7,1] + xd[9,1] + xd[3,1] + xd[6,1] + xd[10,1] + xd[2,1]
   + xd[4,1] + xd[8,1] + xd[0,1] - 10 w[1] <= 0
 C12: - 990 w[2] >= -990
 C13: - 10 w[2] <= 0
 C14: xd[6,2] + xd[4,2] + xd[8,2] + xd[0,2] + xd[5,2] + xd[7,2] + xd[9,2]
   + xd[1,2] + xd[3,2] + xd[10,2] - 10 w[2] <= 0
 C12: - 990 w[3] >= -965
 C13: - 10 w[3] <= 25
 C14: xd[5,3] + xd[7,3] + xd[9,3] + xd[1,3] + xd[10,3] + xd[2,3] + xd[6,3]
   + xd[4,3] + xd[8,3] + xd[0,3] - 10 w[3] <= 0
 C12: - 990 w[4] >= -997
 C13: - 10 w[4] <= -7
 C14: xd[2,4] + xd[6,4] + xd[8,4] + xd[5,4] + xd[7,4] + xd[0,4] + xd[1,4]
   + xd[3,4] + xd[9,4] + xd[10,4] - 10 w[4] <= 0
 C12: - 990 w[5] >= -992
 C13: - 10 w[5] <= -2
 C14: xd[0,5] + xd[7,5] + xd[9,5] + xd[1,5] + xd[3,5] + xd[10,5] + xd[2,5]
   + xd[6,5] + xd[4,5] + xd[8,5] - 10 w[5] <= 0
 C12: - 990 w[6] >= -976
 C13: - 10 w[6] <= 14
 C14: xd[10,6] + xd[3,6] + xd[2,6] + xd[4,6] + xd[8,6] + xd[5,6] + xd[0,6]
   + xd[1,6] + xd[7,6] + xd[9,6] - 10 w[6] <= 0
 C12: - 990 w[7] >= -984
 C13: - 10 w[7] <= 6
 C14: xd[0,7] + xd[5,7] + xd[9,7] + xd[1,7] + xd[3,7] + xd[10,7] + xd[2,7]
   + xd[6,7] + xd[4,7] + xd[8,7] - 10 w[7] <= 0
 C12: - 990 w[8] >= -992
 C13: - 10 w[8] <= -2
 C14: xd[9,8] + xd[1,8] + xd[3,8] + xd[10,8] + xd[2,8] + xd[6,8] + xd[4,8]
   + xd[0,8] + xd[5,8] + xd[7,8] - 10 w[8] <= 0
 C12: - 990 w[9] >= -999
 C13: - 10 w[9] <= -9
 C14: xd[4,9] + xd[8,9] + xd[0,9] + xd[5,9] + xd[7,9] + xd[1,9] + xd[3,9]
   + xd[10,9] + xd[2,9] + xd[6,9] - 10 w[9] <= 0
 C12: - 990 w[10] >= -998
 C13: - 10 w[10] <= -8
 C14: xd[5,10] + xd[7,10] + xd[9,10] + xd[1,10] + xd[3,10] + xd[2,10]
   + xd[6,10] + xd[4,10] + xd[8,10] + xd[0,10] - 10 w[10] <= 0
Bounds
 y[1] <= 40
 y[2] <= 40
 y[3] <= 40
 y[4] <= 40
 y[5] <= 40
 y[6] <= 40
 y[7] <= 40
 y[8] <= 40
 y[9] <= 40
 y[10] <= 40
Binaries
 xt[4,0] xt[4,9] xt[5,1] xt[8,0] xt[5,10] xt[8,9] xt[10,6] xt[9,8] xt[0,5]
 xt[6,2] xt[7,1] xt[7,10] xt[4,2] xt[3,6] xt[5,3] xt[8,2] xt[9,1] xt[9,10]
 xt[0,7] xt[2,4] xt[1,8] xt[6,4] xt[7,3] xt[3,8] xt[8,4] xt[9,3] xt[0,9]
 xt[1,10] xt[7,5] xt[3,1] xt[3,10] xt[5,7] xt[9,5] xt[0,2] xt[1,3] xt[5,0]
 xt[5,9] xt[9,7] xt[10,8] xt[1,5] xt[6,1] xt[7,0] xt[7,9] xt[3,5] xt[5,2]
 xt[9,0] xt[10,1] xt[1,7] xt[2,6] xt[7,2] xt[3,7] xt[5,4] xt[4,6] xt[9,2]
 xt[8,6] xt[10,3] xt[1,0] xt[1,9] xt[2,8] xt[7,4] xt[6,8] xt[3,0] xt[3,9]
 xt[5,6] xt[4,8] xt[10,5] xt[1,2] xt[0,4] xt[2,1] xt[2,10] xt[6,10] xt[3,2]
 xt[4,1] xt[4,10] xt[8,1] xt[8,10] xt[10,7] xt[1,4] xt[0,6] xt[2,3] xt[6,3]
 xt[3,4] xt[4,3] xt[8,3] xt[10,0] xt[10,9] xt[1,6] xt[0,8] xt[2,5] xt[6,5]
 xt[4,5] xt[8,5] xt[10,2] xt[9,4] xt[0,1] xt[0,10] xt[2,7] xt[6,7] xt[7,6]
 xt[4,7] xt[5,8] xt[8,7] xt[10,4] xt[9,6] xt[0,3] xt[2,0] xt[2,9] xt[6,0]
 xt[6,9] xt[7,8] xd[4,0] xd[4,9] xd[5,1] xd[8,0] xd[5,10] xd[8,9] xd[10,6]
 xd[9,8] xd[0,5] xd[6,2] xd[7,1] xd[7,10] xd[4,2] xd[3,6] xd[5,3] xd[8,2]
 xd[9,1] xd[9,10] xd[0,7] xd[2,4] xd[1,8] xd[6,4] xd[7,3] xd[3,8] xd[8,4]
 xd[9,3] xd[0,9] xd[1,10] xd[7,5] xd[3,1] xd[3,10] xd[5,7] xd[9,5] xd[0,2]
 xd[1,3] xd[5,0] xd[5,9] xd[9,7] xd[10,8] xd[1,5] xd[6,1] xd[7,0] xd[7,9]
 xd[3,5] xd[5,2] xd[9,0] xd[10,1] xd[1,7] xd[2,6] xd[7,2] xd[3,7] xd[5,4]
 xd[4,6] xd[9,2] xd[8,6] xd[10,3] xd[1,0] xd[1,9] xd[2,8] xd[7,4] xd[6,8]
 xd[3,0] xd[3,9] xd[5,6] xd[4,8] xd[10,5] xd[1,2] xd[0,4] xd[2,1] xd[2,10]
 xd[6,10] xd[3,2] xd[4,1] xd[4,10] xd[8,1] xd[8,10] xd[10,7] xd[1,4]
 xd[0,6] xd[2,3] xd[6,3] xd[3,4] xd[4,3] xd[8,3] xd[10,0] xd[10,9] xd[1,6]
 xd[0,8] xd[2,5] xd[6,5] xd[4,5] xd[8,5] xd[10,2] xd[9,4] xd[0,1] xd[0,10]
 xd[2,7] xd[6,7] xd[7,6] xd[4,7] xd[5,8] xd[8,7] xd[10,4] xd[9,6] xd[0,3]
 xd[2,0] xd[2,9] xd[6,0] xd[6,9] xd[7,8] w[1] w[2] w[3] w[4] w[5] w[6] w[7]
 w[8] w[9] w[10]
End
